(set-logic ALL)
(set-option :produce-models true)
(declare-sort BoundSet 0)
(declare-sort UnboundSet 0)
(set-option :finite-model-find true)
(declare-fun IsTrimming (BoundSet BoundSet) Bool)
(declare-fun IsPickingUp (BoundSet BoundSet) Bool)
(assert (not (=> (and (exists ((a BoundSet)) (exists ((b BoundSet)) (IsTrimming a b))) (forall ((e BoundSet)) (forall ((h BoundSet)) (forall ((f BoundSet)) (forall ((g BoundSet)) (=> (IsTrimming e f) (IsPickingUp g h))))))) (exists ((c BoundSet)) (exists ((d BoundSet)) (IsPickingUp c d))))))
(check-sat)
(get-model)